SDVRP instances/custom_instances/p04_19_split0.vrp
NAME:p04_19_split
BEST_KNOWN: 0
COMMENT: 0
DIMENSION: 713
CAPACITY: 200
EDGE_WEIGHT_FORMAT: FUNCTION
EDGE_WEIGHT_TYPE: EXACT_2D
NODE_COORD_SECTION
1 0.00000 0.00000
2 -26 49
3 -26 49
4 -26 49
5 -26 49
6 -23 -44
7 -23 -44
8 -23 -44
9 -23 -44
10 -12 24
11 -12 24
12 -12 24
13 -12 24
14 -12 24
15 -12 24
16 -12 24
17 38 -33
18 38 -33
19 38 -33
20 38 -33
21 38 -33
22 32 32
23 32 32
24 32 32
25 32 32
26 32 32
27 32 32
28 32 32
29 -46 13
30 -46 13
31 -46 13
32 -46 13
33 -46 13
34 -46 13
35 -46 13
36 -34 4
37 -34 4
38 -34 4
39 -34 4
40 34 29
41 34 29
42 34 29
43 34 29
44 3 19
45 3 19
46 3 19
47 3 19
48 3 19
49 3 19
50 30 9
51 30 9
52 30 9
53 30 9
54 30 9
55 -38 -11
56 -38 -11
57 -38 -11
58 -38 -11
59 -38 -11
60 16 -46
61 16 -46
62 16 -46
63 16 -46
64 16 -46
65 16 -46
66 -32 -41
67 -32 -41
68 -32 -41
69 -32 -41
70 -32 -41
71 -32 -41
72 -32 -41
73 -32 -41
74 -31 34
75 -31 34
76 11 45
77 11 45
78 11 45
79 11 45
80 11 45
81 11 45
82 19 -42
83 19 -42
84 19 -42
85 19 -42
86 19 -42
87 19 -42
88 -50 24
89 -50 24
90 -50 24
91 -50 24
92 -50 24
93 -50 24
94 -7 -2
95 -7 -2
96 -7 -2
97 -7 -2
98 -7 -2
99 -7 -2
100 -7 -2
101 -14 13
102 -14 13
103 -14 13
104 -14 13
105 -41 -45
106 -41 -45
107 -41 -45
108 -41 -45
109 -37 -10
110 -37 -10
111 -37 -10
112 -37 -10
113 -37 -10
114 -37 -10
115 -37 -10
116 5 40
117 5 40
118 -44 38
119 -44 38
120 -44 38
121 -44 38
122 -39 -14
123 -39 -14
124 -39 -14
125 -39 -14
126 -39 -14
127 -39 -14
128 -1 -42
129 -1 -42
130 -1 -42
131 -1 -42
132 9 -26
133 9 -26
134 -40 -16
135 -40 -16
136 -40 -16
137 -40 -16
138 -40 -16
139 -1 -12
140 -1 -12
141 -1 -12
142 -1 -12
143 -1 -12
144 34 -38
145 34 -38
146 34 -38
147 34 -38
148 -2 -17
149 -2 -17
150 -2 -17
151 -2 -17
152 -2 -17
153 -2 -17
154 18 16
155 18 16
156 18 16
157 18 16
158 -36 19
159 -36 19
160 -27 -28
161 -27 -28
162 -27 -28
163 -27 -28
164 -27 -28
165 -41 27
166 -41 27
167 -41 27
168 -41 27
169 -41 27
170 14 -15
171 14 -15
172 14 -15
173 14 -15
174 14 -15
175 14 -15
176 5 -19
177 5 -19
178 5 -19
179 5 -19
180 5 -19
181 32 7
182 32 7
183 32 7
184 32 7
185 32 7
186 32 7
187 -38 29
188 -38 29
189 -38 29
190 -38 29
191 -38 29
192 -38 29
193 38 36
194 38 36
195 38 36
196 38 36
197 38 36
198 20 -32
199 3 5
200 3 5
201 3 5
202 3 5
203 6 -21
204 6 -21
205 6 -21
206 6 -21
207 8 -21
208 8 -21
209 8 -21
210 8 -21
211 13 -1
212 13 -1
213 13 -1
214 13 -1
215 12 31
216 12 31
217 12 31
218 12 31
219 -13 48
220 -13 48
221 -13 48
222 -13 48
223 -13 48
224 -13 48
225 -13 48
226 -9 -7
227 -9 -7
228 -9 -7
229 -9 -7
230 -9 -7
231 -25 23
232 -25 23
233 -25 23
234 -25 23
235 -25 23
236 -25 23
237 43 2
238 43 2
239 43 2
240 43 2
241 43 2
242 43 2
243 -46 -21
244 -46 -21
245 -46 -21
246 -46 -21
247 -46 -21
248 50 18
249 50 18
250 50 18
251 50 18
252 50 18
253 50 18
254 50 18
255 35 9
256 35 9
257 -34 -9
258 -34 -9
259 -34 -9
260 -34 -9
261 -34 -9
262 39 1
263 39 1
264 39 1
265 39 1
266 39 1
267 39 1
268 -32 -41
269 -32 -41
270 -32 -41
271 -32 -41
272 -24 -19
273 -24 4
274 -24 4
275 -24 4
276 -24 4
277 -24 4
278 49 22
279 49 22
280 49 22
281 49 22
282 7 14
283 7 14
284 7 14
285 7 14
286 7 14
287 7 14
288 7 14
289 -27 -41
290 -27 -41
291 -27 -41
292 -27 -41
293 -27 -41
294 -18 -5
295 -18 -5
296 10 18
297 10 18
298 10 18
299 10 18
300 25 27
301 25 27
302 25 27
303 20 25
304 20 25
305 20 25
306 8 49
307 8 49
308 8 49
309 8 49
310 -6 38
311 -6 38
312 -6 38
313 -6 38
314 39 -11
315 39 -11
316 -11 -27
317 -11 -27
318 -11 -27
319 -8 -17
320 -8 -17
321 -8 -17
322 -8 -17
323 -8 -17
324 -8 -17
325 -37 -15
326 -37 -15
327 -37 -15
328 13 -2
329 13 -2
330 13 -2
331 13 -2
332 13 -2
333 13 -2
334 29 -5
335 29 -5
336 29 -5
337 29 -5
338 29 -5
339 34 -31
340 34 -31
341 17 33
342 17 33
343 17 33
344 17 33
345 28 -47
346 28 -47
347 28 -47
348 28 -47
349 28 -47
350 28 -47
351 24 -49
352 24 -49
353 24 -49
354 24 -49
355 24 -49
356 24 -49
357 24 -49
358 -35 19
359 -35 19
360 -35 19
361 26 14
362 26 14
363 26 14
364 26 14
365 26 14
366 -25 9
367 -25 9
368 -25 9
369 -25 9
370 -25 9
371 -25 9
372 8 -9
373 8 -9
374 8 -9
375 8 -9
376 8 -9
377 8 -9
378 17 -24
379 17 -24
380 17 -24
381 17 -24
382 -49 -37
383 -49 -37
384 -49 -37
385 -49 -37
386 -49 -37
387 34 38
388 34 38
389 34 38
390 -49 -39
391 -49 -39
392 -49 -39
393 -49 -39
394 -49 -39
395 11 31
396 11 31
397 11 31
398 11 31
399 11 31
400 11 31
401 47 -14
402 47 -14
403 47 -14
404 47 -14
405 47 -14
406 20 -3
407 20 -3
408 20 -3
409 20 -3
410 -8 38
411 -8 38
412 -8 38
413 -8 38
414 -8 38
415 -11 -30
416 -11 -30
417 -11 -30
418 -11 -30
419 -11 -30
420 19 41
421 19 41
422 19 41
423 38 46
424 38 46
425 -4 20
426 -4 20
427 -4 20
428 -4 20
429 -4 20
430 -4 20
431 -4 20
432 -4 20
433 -1 4
434 -1 4
435 -1 4
436 -1 4
437 -1 4
438 18 8
439 18 8
440 18 8
441 -37 19
442 -37 19
443 -37 19
444 -37 19
445 -37 19
446 50 -17
447 50 -17
448 50 -17
449 50 -17
450 -41 -30
451 -41 -30
452 -41 -30
453 -41 -30
454 -22 17
455 -22 17
456 -22 17
457 -22 17
458 -22 17
459 -22 17
460 -43 -47
461 -43 -47
462 -43 -47
463 -43 -47
464 -43 -47
465 -43 -47
466 -28 -37
467 -28 -37
468 -28 -37
469 -28 -37
470 -28 -37
471 -34 -14
472 -34 -14
473 -34 -14
474 -43 -40
475 -43 -40
476 -43 -40
477 -43 -40
478 -43 -40
479 -43 -40
480 -43 -40
481 -43 -40
482 22 -10
483 22 -10
484 22 -10
485 -43 -44
486 -43 -44
487 -43 -44
488 -49 13
489 -49 13
490 -49 13
491 -49 13
492 -49 13
493 19 -31
494 19 -31
495 19 -31
496 19 -31
497 19 -31
498 19 -31
499 6 -45
500 6 -45
501 6 -45
502 6 -45
503 6 -45
504 6 -45
505 -42 22
506 -42 22
507 -42 22
508 -42 22
509 -42 22
510 -46 38
511 -46 38
512 -46 38
513 -46 38
514 -46 38
515 21 7
516 21 7
517 21 7
518 21 7
519 21 7
520 21 7
521 -31 -18
522 -31 -18
523 -31 -18
524 -31 -18
525 -31 -18
526 -31 -18
527 40 23
528 40 23
529 40 23
530 40 23
531 40 23
532 -38 9
533 -38 9
534 -38 9
535 -38 9
536 -38 9
537 -38 9
538 -38 9
539 -38 9
540 32 38
541 32 38
542 32 38
543 -45 50
544 -45 50
545 -45 50
546 -45 50
547 -45 50
548 -42 20
549 -42 20
550 -42 20
551 -42 20
552 -42 20
553 -20 -43
554 -20 -43
555 -20 -43
556 -20 -43
557 43 -1
558 43 -1
559 43 -1
560 43 -1
561 43 -1
562 -6 -7
563 -6 -7
564 -6 -7
565 -6 -7
566 44 30
567 44 30
568 44 30
569 44 30
570 44 30
571 44 30
572 -2 12
573 -2 12
574 -2 12
575 -2 12
576 47 14
577 47 14
578 47 14
579 47 14
580 47 14
581 49 15
582 49 15
583 49 15
584 -15 -40
585 -15 -40
586 -15 -40
587 19 30
588 19 30
589 19 30
590 19 30
591 -36 -14
592 -36 -14
593 -36 -14
594 41 -4
595 41 -4
596 41 -4
597 3 -35
598 3 -35
599 3 -35
600 3 -35
601 3 -35
602 3 -35
603 -37 10
604 -37 10
605 -37 10
606 -6 -22
607 -6 -22
608 -6 -22
609 -6 -22
610 -6 -22
611 -6 -22
612 28 9
613 28 9
614 42 -25
615 42 -25
616 42 -25
617 42 -25
618 42 -25
619 36 -19
620 36 -19
621 36 -19
622 17 41
623 17 41
624 17 41
625 17 41
626 50 -22
627 50 -22
628 50 -22
629 50 -22
630 19 -13
631 19 -13
632 19 -13
633 19 -13
634 19 -13
635 30 -42
636 30 -42
637 30 -42
638 -27 21
639 -27 21
640 -27 21
641 -27 21
642 -27 21
643 -7 -23
644 -7 -23
645 -7 -23
646 -7 -23
647 -7 -23
648 -7 -23
649 -7 -23
650 -15 0
651 -15 0
652 -15 0
653 -15 0
654 -15 0
655 -15 0
656 -15 0
657 -26 36
658 -26 36
659 -26 36
660 -26 36
661 -26 36
662 29 28
663 29 28
664 29 28
665 29 28
666 41 20
667 41 20
668 41 20
669 41 20
670 41 20
671 41 20
672 41 20
673 -27 8
674 -27 8
675 -27 8
676 -23 -6
677 -23 -6
678 -23 -6
679 -23 -6
680 -23 -6
681 -23 -6
682 -23 -6
683 -23 -6
684 34 40
685 34 40
686 34 40
687 34 40
688 34 40
689 34 40
690 34 40
691 43 19
692 43 19
693 43 19
694 43 19
695 43 19
696 43 19
697 43 19
698 47 34
699 47 34
700 47 34
701 47 34
702 -11 -4
703 -11 -4
704 -11 -4
705 -11 -4
706 -11 -4
707 -41 14
708 -41 14
709 -41 14
710 -41 14
711 -41 14
712 -41 14
713 -41 14
DEMAND_SECTION
1 0
2 20
3 2
4 2
5 2
6 20
7 2
8 2
9 2
10 40
11 20
12 10
13 2
14 2
15 2
16 1
17 20
18 10
19 2
20 2
21 1
22 20
23 10
24 2
25 2
26 2
27 2
28 1
29 40
30 10
31 2
32 2
33 2
34 2
35 1
36 40
37 20
38 10
39 2
40 40
41 20
42 2
43 1
44 40
45 40
46 10
47 2
48 2
49 1
50 40
51 10
52 2
53 2
54 1
55 40
56 2
57 2
58 2
59 2
60 40
61 40
62 2
63 2
64 2
65 1
66 40
67 40
68 10
69 2
70 2
71 2
72 2
73 1
74 40
75 2
76 40
77 20
78 2
79 2
80 2
81 2
82 40
83 40
84 2
85 2
86 2
87 1
88 20
89 10
90 2
91 2
92 2
93 2
94 40
95 40
96 10
97 2
98 2
99 2
100 2
101 20
102 10
103 2
104 2
105 20
106 2
107 2
108 2
109 40
110 40
111 10
112 2
113 2
114 2
115 2
116 40
117 2
118 40
119 10
120 2
121 2
122 40
123 20
124 10
125 2
126 2
127 2
128 40
129 10
130 2
131 2
132 20
133 10
134 20
135 2
136 2
137 2
138 1
139 40
140 10
141 2
142 2
143 2
144 40
145 40
146 10
147 1
148 40
149 40
150 2
151 2
152 2
153 1
154 40
155 20
156 2
157 2
158 40
159 20
160 40
161 20
162 2
163 2
164 2
165 40
166 20
167 10
168 2
169 1
170 40
171 10
172 2
173 2
174 2
175 1
176 40
177 2
178 2
179 2
180 2
181 40
182 40
183 2
184 2
185 2
186 2
187 20
188 2
189 2
190 2
191 2
192 1
193 40
194 2
195 2
196 2
197 1
198 40
199 40
200 10
201 2
202 2
203 40
204 10
205 2
206 1
207 20
208 10
209 2
210 1
211 40
212 10
213 2
214 2
215 20
216 10
217 2
218 2
219 40
220 20
221 10
222 2
223 2
224 2
225 1
226 40
227 20
228 2
229 2
230 1
231 40
232 40
233 2
234 2
235 2
236 2
237 20
238 10
239 2
240 2
241 2
242 2
243 40
244 40
245 10
246 2
247 2
248 40
249 40
250 10
251 2
252 2
253 2
254 1
255 40
256 1
257 20
258 2
259 2
260 2
261 1
262 40
263 40
264 2
265 2
266 2
267 1
268 40
269 40
270 2
271 1
272 40
273 40
274 20
275 2
276 2
277 2
278 40
279 2
280 2
281 1
282 40
283 20
284 10
285 2
286 2
287 2
288 1
289 20
290 10
291 2
292 2
293 2
294 40
295 40
296 40
297 40
298 2
299 2
300 20
301 10
302 2
303 40
304 10
305 2
306 20
307 2
308 2
309 2
310 40
311 10
312 2
313 2
314 40
315 10
316 40
317 2
318 1
319 40
320 20
321 10
322 2
323 2
324 2
325 40
326 40
327 1
328 40
329 40
330 2
331 2
332 2
333 1
334 40
335 2
336 2
337 2
338 2
339 40
340 1
341 40
342 10
343 2
344 2
345 40
346 40
347 10
348 2
349 2
350 1
351 40
352 40
353 10
354 2
355 2
356 2
357 2
358 40
359 20
360 1
361 40
362 40
363 10
364 2
365 2
366 40
367 20
368 2
369 2
370 2
371 2
372 20
373 10
374 2
375 2
376 2
377 1
378 20
379 2
380 2
381 1
382 40
383 40
384 10
385 2
386 1
387 40
388 10
389 2
390 40
391 10
392 2
393 2
394 2
395 40
396 20
397 10
398 2
399 2
400 1
401 40
402 20
403 10
404 2
405 1
406 20
407 10
408 2
409 1
410 20
411 2
412 2
413 2
414 1
415 40
416 20
417 2
418 2
419 2
420 40
421 2
422 1
423 20
424 10
425 40
426 40
427 10
428 2
429 2
430 2
431 2
432 1
433 20
434 2
435 2
436 2
437 2
438 40
439 20
440 2
441 40
442 40
443 10
444 2
445 1
446 40
447 20
448 2
449 1
450 40
451 2
452 2
453 1
454 40
455 20
456 2
457 2
458 2
459 2
460 40
461 20
462 10
463 2
464 2
465 2
466 20
467 10
468 2
469 2
470 1
471 40
472 10
473 1
474 40
475 20
476 10
477 2
478 2
479 2
480 2
481 1
482 20
483 10
484 1
485 40
486 2
487 2
488 40
489 2
490 2
491 2
492 1
493 40
494 2
495 2
496 2
497 2
498 1
499 40
500 40
501 10
502 2
503 2
504 1
505 20
506 10
507 2
508 2
509 2
510 40
511 20
512 2
513 2
514 1
515 40
516 2
517 2
518 2
519 2
520 1
521 40
522 40
523 10
524 2
525 2
526 1
527 40
528 20
529 2
530 2
531 1
532 40
533 40
534 10
535 2
536 2
537 2
538 2
539 1
540 40
541 10
542 1
543 20
544 2
545 2
546 2
547 2
548 40
549 40
550 2
551 2
552 2
553 20
554 2
555 2
556 2
557 40
558 10
559 2
560 2
561 2
562 40
563 40
564 2
565 1
566 20
567 10
568 2
569 2
570 2
571 2
572 20
573 10
574 2
575 1
576 40
577 10
578 2
579 2
580 1
581 40
582 2
583 2
584 20
585 10
586 2
587 20
588 2
589 2
590 1
591 40
592 20
593 1
594 40
595 2
596 2
597 40
598 2
599 2
600 2
601 2
602 1
603 40
604 40
605 2
606 40
607 2
608 2
609 2
610 2
611 1
612 40
613 40
614 40
615 10
616 2
617 2
618 1
619 40
620 2
621 1
622 40
623 20
624 10
625 2
626 40
627 2
628 2
629 1
630 40
631 10
632 2
633 2
634 2
635 40
636 40
637 20
638 20
639 2
640 2
641 2
642 2
643 20
644 10
645 2
646 2
647 2
648 2
649 1
650 40
651 40
652 2
653 2
654 2
655 2
656 1
657 20
658 10
659 2
660 2
661 2
662 40
663 20
664 2
665 1
666 40
667 20
668 10
669 2
670 2
671 2
672 1
673 20
674 10
675 1
676 40
677 20
678 10
679 2
680 2
681 2
682 2
683 1
684 20
685 10
686 2
687 2
688 2
689 2
690 1
691 40
692 10
693 2
694 2
695 2
696 2
697 1
698 40
699 20
700 10
701 1
702 40
703 10
704 2
705 2
706 2
707 40
708 20
709 10
710 2
711 2
712 2
713 1
DEPOT_SECTION
1
-1
EOF