SDVRP instances/custom_instances/p04_19_split0.sol
712 -11 13 9 10 14 15 12 426 430 425 431 424 571 574 573 -73 74 544 542 543 546 545 512 510 511 513 509 120 119 117 118 187 234 235 -82 81 61 62 60 59 63 64 131 132 209 208 -85 86 84 83 353 352 350 351 355 354 356 346 344 349 345 348 347 -96 95 93 229 226 225 227 228 564 562 563 561 -98 97 99 94 293 294 702 701 705 703 704 -100 232 231 233 230 640 641 639 638 637 454 456 457 455 458 453 -102 101 103 658 656 659 657 660 1 2 4 3 220 223 221 222 224 219 218 409 411 412 413 410 572 434 436 435 -115 116 75 77 76 80 78 79 305 306 307 308 311 310 312 309 428 429 427 -121 123 122 325 326 324 590 592 -127 128 130 129 499 500 502 503 498 501 601 598 599 600 597 596 -140 141 138 139 148 147 151 318 321 319 322 -142 149 609 607 645 646 418 416 585 584 583 554 555 553 552 7 5 8 6 292 291 289 290 288 468 465 467 159 -143 146 144 145 636 635 634 -152 150 610 608 606 605 643 644 648 642 647 417 414 415 316 317 315 320 323 -153 304 302 303 217 214 215 399 395 396 398 397 394 -154 155 156 194 195 423 422 683 687 689 685 688 686 684 388 387 386 540 541 539 -160 107 106 105 104 461 464 462 459 463 460 485 486 484 474 475 -163 162 161 269 72 71 267 65 270 66 268 68 69 67 70 469 466 -179 177 175 178 176 202 205 204 203 207 206 169 172 170 171 173 174 373 374 376 375 -183 181 182 185 180 184 53 49 51 52 50 516 517 519 514 518 515 -189 186 190 188 191 164 166 167 165 168 549 547 548 551 550 443 444 442 -196 192 193 697 699 698 700 569 566 568 565 570 567 280 279 277 278 693 -199 284 281 297 298 295 296 439 438 437 -201 200 198 286 287 283 285 282 44 45 48 46 47 43 432 433 -210 212 211 213 331 328 332 327 330 329 -216 624 622 623 621 419 421 420 340 343 341 342 589 588 586 587 -249 253 251 248 247 250 252 582 581 580 578 576 579 575 577 -254 255 240 236 237 238 239 241 266 261 265 264 263 262 406 405 407 408 -259 256 472 470 525 524 520 523 522 521 271 -276 673 604 34 32 33 31 30 29 28 491 487 490 488 489 91 89 90 88 92 87 505 504 506 508 507 359 -301 299 300 23 26 27 25 24 21 22 39 42 41 40 663 664 661 662 -337 336 333 334 335 314 313 594 595 593 559 558 560 556 557 -338 339 19 17 20 16 18 616 615 617 613 614 619 620 618 481 -358 357 158 157 441 440 -360 361 364 362 363 611 612 -366 370 365 275 272 273 274 677 676 675 678 681 -368 367 369 707 706 711 708 710 709 712 35 36 38 37 649 654 652 655 -371 372 377 380 379 378 492 495 496 493 494 497 197 630 631 633 632 629 -400 404 403 401 402 447 446 448 445 626 628 625 627 482 483 -450 383 381 384 385 382 391 392 393 390 389 479 476 473 477 480 478 -451 452 449 245 243 242 244 246 135 134 137 133 136 126 125 124 591 471 -529 527 530 526 528 669 666 665 671 670 667 668 694 695 696 692 691 690 -532 537 533 534 531 535 536 538 603 602 672 674 -651 653 650 108 113 114 111 109 112 110 54 57 58 56 55 257 258 260 679 680 682 0 





OBJ=
3976.846
BEST_KNOWN=
0.000